# Objective value = 6.3821099793838093e+03
I_0_0 2155
I_0_1 3016
I_0_2 2.6170000626404426e+03
I_0_3 2.6560001777927268e+03
I_0_4 2283.99981190847
I_0_5 2.5299999999999995e+03
I_0_6 3.3909999999999995e+03
I_1_0 55
I_1_1 0
I_1_2 55
I_1_3 0
I_1_4 55
I_1_5 55
I_1_6 0
I_2_0 198
I_2_1 99
I_2_2 1.9799986387968224e+02
I_2_3 9.8999982072218643e+01
I_2_4 198
I_2_5 99
I_2_6 0
I_3_0 92
I_3_1 0
I_3_2 92
I_3_3 7.15375878145033e-05
I_3_4 92
I_3_5 92
I_3_6 0
I_4_0 76
I_4_1 0
I_4_2 76
I_4_3 0
I_4_4 76
I_4_5 76
I_4_6 0
I_5_0 194
I_5_1 97
I_5_2 0
I_5_3 194
I_5_4 194
I_5_5 9.7000000000000284e+01
I_5_6 0
I_6_0 22
I_6_1 11
I_6_2 2.1999986857854974e+01
I_6_3 1.0999999999999968e+01
I_6_4 22
I_6_5 1.1000000000000011e+01
I_6_6 1.0658141036401503e-14
I_7_0 142
I_7_1 71
I_7_2 0
I_7_3 1.4199999999999994e+02
I_7_4 1.4199999999999969e+02
I_7_5 7.0999999999999687e+01
I_7_6 0
I_8_0 116
I_8_1 58
I_8_2 116
I_8_3 58
I_8_4 116
I_8_5 116
I_8_6 58
I_9_0 68
I_9_1 34
I_9_2 68
I_9_3 34
I_9_4 68
I_9_5 34
I_9_6 0
I_10_0 126
I_10_1 63
I_10_2 8.66220203666138e-05
I_10_3 1.2599995668898981e+02
I_10_4 1.2599999999999973e+02
I_10_5 6.2999999999999730e+01
I_10_6 0
I_11_0 36
I_11_1 0
I_11_2 36
I_11_3 3.5999947257882170e+01
I_11_4 5.2742117829129853e-05
I_11_5 36
I_11_6 0
I_12_0 83
I_12_1 0
I_12_2 83
I_12_3 8.2999878400122256e+01
I_12_4 1.2159988277271605e-04
I_12_5 8.2999999999999986e+01
I_12_6 0
I_13_0 10
I_13_1 0
I_13_2 10
I_13_3 9.9999862504729524e+00
I_13_4 1.3749527049618311e-05
I_13_5 10
I_13_6 0
I_14_0 30
I_14_1 0
I_14_2 30
I_14_3 0
I_14_4 30
I_14_5 30
I_14_6 0
I_15_0 46
I_15_1 0
I_15_2 46
I_15_3 0
I_15_4 46
I_15_5 46
I_15_6 0
q_1_0_0 0
q_1_0_1 0
q_1_0_2 0
q_1_0_3 110
q_1_0_4 55
q_1_0_5 0
q_1_1_0 0
q_1_1_1 110
q_1_1_2 0
q_1_1_3 0
q_1_1_4 0
q_1_1_5 0
q_2_0_0 0
q_2_0_1 1.9799986387968224e+02
q_2_0_2 0.00011819253638918
q_2_0_3 0
q_2_0_4 0
q_2_0_5 0
q_2_1_0 0
q_2_1_1 0
q_2_1_2 0
q_2_1_3 1.9800001792778139e+02
q_2_1_4 0
q_2_1_5 0
q_3_0_0 0
q_3_0_1 0
q_3_0_2 7.1537587804288048e-05
q_3_0_3 1.8399992846241221e+02
q_3_0_4 9.1999999999999972e+01
q_3_0_5 0
q_3_1_0 0
q_3_1_1 184
q_3_1_2 0
q_3_1_3 0
q_3_1_4 0
q_3_1_5 0
q_4_0_0 0
q_4_0_1 0
q_4_0_2 0
q_4_0_3 152
q_4_0_4 7.5999999999999858e+01
q_4_0_5 0
q_4_1_0 0
q_4_1_1 152
q_4_1_2 0
q_4_1_3 0
q_4_1_4 0
q_4_1_5 0
q_5_0_0 0
q_5_0_1 0
q_5_0_2 0
q_5_0_3 0
q_5_0_4 0
q_5_0_5 0
q_5_1_0 0
q_5_1_1 0
q_5_1_2 291
q_5_1_3 9.6999999999999432e+01
q_5_1_4 0
q_5_1_5 0
q_6_0_0 0
q_6_0_1 2.1999986857854974e+01
q_6_0_2 1.3142144993594229e-05
q_6_0_3 0
q_6_0_4 0
q_6_0_5 0
q_6_1_0 0
q_6_1_1 0
q_6_1_2 0
q_6_1_3 2.2000000000000032e+01
q_6_1_4 0
q_6_1_5 0
q_7_0_0 0
q_7_0_1 0
q_7_0_2 2.1299999999999991e+02
q_7_0_3 0
q_7_0_4 0
q_7_0_5 0
q_7_1_0 0
q_7_1_1 0
q_7_1_2 0
q_7_1_3 7.0999999999999829e+01
q_7_1_4 0
q_7_1_5 0
q_8_0_0 0
q_8_0_1 0
q_8_0_2 0
q_8_0_3 1.1600000000000385e+02
q_8_0_4 5.7999999999999773e+01
q_8_0_5 0
q_8_1_0 0
q_8_1_1 116
q_8_1_2 0
q_8_1_3 0
q_8_1_4 0
q_8_1_5 0
q_9_0_0 0
q_9_0_1 0
q_9_0_2 0
q_9_0_3 68
q_9_0_4 0
q_9_0_5 0
q_9_1_0 0
q_9_1_1 68
q_9_1_2 0
q_9_1_3 0
q_9_1_4 0
q_9_1_5 0
q_10_0_0 0
q_10_0_1 8.66220203666138e-05
q_10_0_2 1.8899987006696941e+02
q_10_0_3 0
q_10_0_4 0
q_10_0_5 0
q_10_1_0 0
q_10_1_1 0
q_10_1_2 0
q_10_1_3 6.3000043311009932e+01
q_10_1_4 0
q_10_1_5 0
q_11_0_0 0
q_11_0_1 72
q_11_0_2 3.5999947257882170e+01
q_11_0_3 0
q_11_0_4 71.9999472578822
q_11_0_5 0
q_11_1_0 0
q_11_1_1 0
q_11_1_2 0
q_11_1_3 1.0548423565825971e-04
q_11_1_4 0
q_11_1_5 0
q_12_0_0 0
q_12_0_1 166
q_12_0_2 8.2999878400122256e+01
q_12_0_3 0
q_12_0_4 1.6599987840011724e+02
q_12_0_5 1.4210854715202004e-14
q_12_1_0 0
q_12_1_1 0
q_12_1_2 0
q_12_1_3 2.4319976051667691e-04
q_12_1_4 0
q_12_1_5 0
q_13_0_0 0
q_13_0_1 20
q_13_0_2 9.9999862504729524e+00
q_13_0_3 0
q_13_0_4 1.9999986250472951e+01
q_13_0_5 0
q_13_1_0 0
q_13_1_1 0
q_13_1_2 0
q_13_1_3 2.74990540971979e-05
q_13_1_4 0
q_13_1_5 0
q_14_0_0 0
q_14_0_1 60
q_14_0_2 0
q_14_0_3 0
q_14_0_4 2.9999999999998433e+01
q_14_0_5 0
q_14_1_0 0
q_14_1_1 0
q_14_1_2 0
q_14_1_3 60
q_14_1_4 0
q_14_1_5 0
q_15_0_0 0
q_15_0_1 92
q_15_0_2 0
q_15_0_3 0
q_15_0_4 46
q_15_0_5 0
q_15_1_0 0
q_15_1_1 0
q_15_1_2 1.2773597178887654e-15
q_15_1_3 92
q_15_1_4 0
q_15_1_5 0
y_0_0_0 0
y_0_0_1 1
y_0_0_2 1
y_0_0_3 1
y_0_0_4 1
y_0_0_5 0
y_0_1_0 0
y_0_1_1 1
y_0_1_2 1
y_0_1_3 1
y_0_1_4 0
y_0_1_5 0
y_1_0_0 0
y_1_0_1 0
y_1_0_2 0
y_1_0_3 1
y_1_0_4 1
y_1_0_5 0
y_1_1_0 0
y_1_1_1 1
y_1_1_2 0
y_1_1_3 0
y_1_1_4 0
y_1_1_5 0
y_2_0_0 0
y_2_0_1 9.9999931253627394e-01
y_2_0_2 6.8747635238793046e-07
y_2_0_3 0
y_2_0_4 0
y_2_0_5 0
y_2_1_0 0
y_2_1_1 0
y_2_1_2 0
y_2_1_3 1
y_2_1_4 0
y_2_1_5 0
y_3_0_0 0
y_3_0_1 0
y_3_0_2 7.7758247624460113e-07
y_3_0_3 1
y_3_0_4 1
y_3_0_5 0
y_3_1_0 0
y_3_1_1 1
y_3_1_2 0
y_3_1_3 0
y_3_1_4 0
y_3_1_5 0
y_4_0_0 0
y_4_0_1 0
y_4_0_2 0
y_4_0_3 1
y_4_0_4 1
y_4_0_5 0
y_4_1_0 0
y_4_1_1 1
y_4_1_2 0
y_4_1_3 0
y_4_1_4 0
y_4_1_5 0
y_5_0_0 0
y_5_0_1 0
y_5_0_2 0
y_5_0_3 0
y_5_0_4 0
y_5_0_5 0
y_5_1_0 0
y_5_1_1 0
y_5_1_2 1
y_5_1_3 1
y_5_1_4 0
y_5_1_5 0
y_6_0_0 0
y_6_0_1 9.9999940272068055e-01
y_6_0_2 5.9737022853125979e-07
y_6_0_3 0
y_6_0_4 0
y_6_0_5 0
y_6_1_0 0
y_6_1_1 0
y_6_1_2 0
y_6_1_3 1
y_6_1_4 0
y_6_1_5 0
y_7_0_0 0
y_7_0_1 0
y_7_0_2 1
y_7_0_3 0
y_7_0_4 0
y_7_0_5 0
y_7_1_0 0
y_7_1_1 0
y_7_1_2 0
y_7_1_3 1
y_7_1_4 0
y_7_1_5 0
y_8_0_0 0
y_8_0_1 0
y_8_0_2 0
y_8_0_3 1
y_8_0_4 1
y_8_0_5 0
y_8_1_0 0
y_8_1_1 1
y_8_1_2 0
y_8_1_3 0
y_8_1_4 0
y_8_1_5 0
y_9_0_0 0
y_9_0_1 0
y_9_0_2 0
y_9_0_3 1
y_9_0_4 0
y_9_0_5 0
y_9_1_0 0
y_9_1_1 1
y_9_1_2 0
y_9_1_3 0
y_9_1_4 0
y_9_1_5 0
y_10_0_0 0
y_10_0_1 6.874366695763e-07
y_10_0_2 9.9999931352364757e-01
y_10_0_3 0
y_10_0_4 0
y_10_0_5 0
y_10_1_0 0
y_10_1_1 0
y_10_1_2 0
y_10_1_3 1
y_10_1_4 0
y_10_1_5 0
y_11_0_0 0
y_11_0_1 1
y_11_0_2 9.9999853594117138e-01
y_11_0_3 0
y_11_0_4 1
y_11_0_5 0
y_11_1_0 0
y_11_1_1 0
y_11_1_2 0
y_11_1_3 1.4649893841424959e-06
y_11_1_4 0
y_11_1_5 0
y_12_0_0 0
y_12_0_1 1
y_12_0_2 0.999998535001473
y_12_0_3 0
y_12_0_4 1
y_12_0_5 0
y_12_1_0 0
y_12_1_1 0
y_12_1_2 0
y_12_1_3 1.4650286778113067e-06
y_12_1_4 0
y_12_1_5 0
y_13_0_0 0
y_13_0_1 1
y_13_0_2 9.9999862504729520e-01
y_13_0_3 0
y_13_0_4 1
y_13_0_5 0
y_13_1_0 0
y_13_1_1 0
y_13_1_2 0
y_13_1_3 1.3747027048598952e-06
y_13_1_4 0
y_13_1_5 0
y_14_0_0 0
y_14_0_1 1
y_14_0_2 0
y_14_0_3 0
y_14_0_4 1
y_14_0_5 0
y_14_1_0 0
y_14_1_1 0
y_14_1_2 0
y_14_1_3 1
y_14_1_4 0
y_14_1_5 0
y_15_0_0 0
y_15_0_1 1
y_15_0_2 0
y_15_0_3 0
y_15_0_4 1
y_15_0_5 0
y_15_1_0 0
y_15_1_1 0
y_15_1_2 0
y_15_1_3 1
y_15_1_4 0
y_15_1_5 0
x_0_1_0_0 0
x_0_1_0_1 0
x_0_1_0_2 0
x_0_1_0_3 0
x_0_1_0_4 0
x_0_1_0_5 0
x_0_1_1_0 0
x_0_1_1_1 0
x_0_1_1_2 0
x_0_1_1_3 0
x_0_1_1_4 0
x_0_1_1_5 0
x_0_2_0_0 0
x_0_2_0_1 0
x_0_2_0_2 0
x_0_2_0_3 0
x_0_2_0_4 0
x_0_2_0_5 0
x_0_2_1_0 0
x_0_2_1_1 0
x_0_2_1_2 0
x_0_2_1_3 0
x_0_2_1_4 0
x_0_2_1_5 0
x_0_3_0_0 0
x_0_3_0_1 0
x_0_3_0_2 8.8106123856670559e-08
x_0_3_0_3 1
x_0_3_0_4 1
x_0_3_0_5 0
x_0_3_1_0 0
x_0_3_1_1 1
x_0_3_1_2 0
x_0_3_1_3 0
x_0_3_1_4 0
x_0_3_1_5 0
x_0_4_0_0 0
x_0_4_0_1 0
x_0_4_0_2 0
x_0_4_0_3 1
x_0_4_0_4 0
x_0_4_0_5 0
x_0_4_1_0 0
x_0_4_1_1 1
x_0_4_1_2 0
x_0_4_1_3 0
x_0_4_1_4 0
x_0_4_1_5 0
x_0_5_0_0 0
x_0_5_0_1 0
x_0_5_0_2 0
x_0_5_0_3 0
x_0_5_0_4 0
x_0_5_0_5 0
x_0_5_1_0 0
x_0_5_1_1 0
x_0_5_1_2 2
x_0_5_1_3 1.0000014625588096e+00
x_0_5_1_4 0
x_0_5_1_5 0
x_0_6_0_0 0
x_0_6_0_1 0
x_0_6_0_2 0
x_0_6_0_3 0
x_0_6_0_4 0
x_0_6_0_5 0
x_0_6_1_0 0
x_0_6_1_1 0
x_0_6_1_2 0
x_0_6_1_3 0
x_0_6_1_4 0
x_0_6_1_5 0
x_0_7_0_0 0
x_0_7_0_1 0
x_0_7_0_2 1.0000013744527045e+00
x_0_7_0_3 0
x_0_7_0_4 0
x_0_7_0_5 0
x_0_7_1_0 0
x_0_7_1_1 0
x_0_7_1_2 0
x_0_7_1_3 0
x_0_7_1_4 0
x_0_7_1_5 0
x_0_8_0_0 0
x_0_8_0_1 0
x_0_8_0_2 0
x_0_8_0_3 0
x_0_8_0_4 0
x_0_8_0_5 0
x_0_8_1_0 0
x_0_8_1_1 0
x_0_8_1_2 0
x_0_8_1_3 0
x_0_8_1_4 0
x_0_8_1_5 0
x_0_9_0_0 0
x_0_9_0_1 0
x_0_9_0_2 0
x_0_9_0_3 0
x_0_9_0_4 0
x_0_9_0_5 0
x_0_9_1_0 0
x_0_9_1_1 0
x_0_9_1_2 0
x_0_9_1_3 0
x_0_9_1_4 0
x_0_9_1_5 0
x_0_10_0_0 0
x_0_10_0_1 0
x_0_10_0_2 0
x_0_10_0_3 0
x_0_10_0_4 0
x_0_10_0_5 0
x_0_10_1_0 0
x_0_10_1_1 0
x_0_10_1_2 0
x_0_10_1_3 0
x_0_10_1_4 0
x_0_10_1_5 0
x_0_11_0_0 0
x_0_11_0_1 1
x_0_11_0_2 9.9999853500031810e-01
x_0_11_0_3 0
x_0_11_0_4 1
x_0_11_0_5 0
x_0_11_1_0 0
x_0_11_1_1 0
x_0_11_1_2 0
x_0_11_1_3 0
x_0_11_1_4 0
x_0_11_1_5 0
x_0_12_0_0 0
x_0_12_0_1 0
x_0_12_0_2 0
x_0_12_0_3 0
x_0_12_0_4 0
x_0_12_0_5 0
x_0_12_1_0 0
x_0_12_1_1 0
x_0_12_1_2 0
x_0_12_1_3 0
x_0_12_1_4 0
x_0_12_1_5 0
x_0_13_0_0 0
x_0_13_0_1 0
x_0_13_0_2 0
x_0_13_0_3 0
x_0_13_0_4 0
x_0_13_0_5 0
x_0_13_1_0 0
x_0_13_1_1 0
x_0_13_1_2 0
x_0_13_1_3 0
x_0_13_1_4 0
x_0_13_1_5 0
x_0_14_0_0 0
x_0_14_0_1 9.9999940267405862e-01
x_0_14_0_2 0
x_0_14_0_3 0
x_0_14_0_4 0
x_0_14_0_5 0
x_0_14_1_0 0
x_0_14_1_1 0
x_0_14_1_2 0
x_0_14_1_3 9.9999853498547753e-01
x_0_14_1_4 0
x_0_14_1_5 0
x_0_15_0_0 0
x_0_15_0_1 5.9487022854153782e-07
x_0_15_0_2 0
x_0_15_0_3 0
x_0_15_0_4 0
x_0_15_0_5 0
x_0_15_1_0 0
x_0_15_1_1 0
x_0_15_1_2 0
x_0_15_1_3 0
x_0_15_1_4 0
x_0_15_1_5 0
x_1_2_0_0 0
x_1_2_0_1 0
x_1_2_0_2 0
x_1_2_0_3 0
x_1_2_0_4 0
x_1_2_0_5 0
x_1_2_1_0 0
x_1_2_1_1 0
x_1_2_1_2 0
x_1_2_1_3 0
x_1_2_1_4 0
x_1_2_1_5 0
x_1_3_0_0 0
x_1_3_0_1 0
x_1_3_0_2 0
x_1_3_0_3 1
x_1_3_0_4 0
x_1_3_0_5 0
x_1_3_1_0 0
x_1_3_1_1 0
x_1_3_1_2 0
x_1_3_1_3 0
x_1_3_1_4 0
x_1_3_1_5 0
x_1_4_0_0 0
x_1_4_0_1 0
x_1_4_0_2 0
x_1_4_0_3 0
x_1_4_0_4 0
x_1_4_0_5 0
x_1_4_1_0 0
x_1_4_1_1 0
x_1_4_1_2 0
x_1_4_1_3 0
x_1_4_1_4 0
x_1_4_1_5 0
x_1_5_0_0 0
x_1_5_0_1 0
x_1_5_0_2 0
x_1_5_0_3 0
x_1_5_0_4 0
x_1_5_0_5 0
x_1_5_1_0 0
x_1_5_1_1 0
x_1_5_1_2 0
x_1_5_1_3 0
x_1_5_1_4 0
x_1_5_1_5 0
x_1_6_0_0 0
x_1_6_0_1 0
x_1_6_0_2 0
x_1_6_0_3 0
x_1_6_0_4 0
x_1_6_0_5 0
x_1_6_1_0 0
x_1_6_1_1 0
x_1_6_1_2 0
x_1_6_1_3 0
x_1_6_1_4 0
x_1_6_1_5 0
x_1_7_0_0 0
x_1_7_0_1 0
x_1_7_0_2 0
x_1_7_0_3 0
x_1_7_0_4 0
x_1_7_0_5 0
x_1_7_1_0 0
x_1_7_1_1 0
x_1_7_1_2 0
x_1_7_1_3 0
x_1_7_1_4 0
x_1_7_1_5 0
x_1_8_0_0 0
x_1_8_0_1 0
x_1_8_0_2 0
x_1_8_0_3 1
x_1_8_0_4 1
x_1_8_0_5 0
x_1_8_1_0 0
x_1_8_1_1 1
x_1_8_1_2 0
x_1_8_1_3 0
x_1_8_1_4 0
x_1_8_1_5 0
x_1_9_0_0 0
x_1_9_0_1 0
x_1_9_0_2 0
x_1_9_0_3 0
x_1_9_0_4 0
x_1_9_0_5 0
x_1_9_1_0 0
x_1_9_1_1 1
x_1_9_1_2 0
x_1_9_1_3 0
x_1_9_1_4 0
x_1_9_1_5 0
x_1_10_0_0 0
x_1_10_0_1 0
x_1_10_0_2 0
x_1_10_0_3 0
x_1_10_0_4 0
x_1_10_0_5 0
x_1_10_1_0 0
x_1_10_1_1 0
x_1_10_1_2 0
x_1_10_1_3 0
x_1_10_1_4 0
x_1_10_1_5 0
x_1_11_0_0 0
x_1_11_0_1 0
x_1_11_0_2 0
x_1_11_0_3 0
x_1_11_0_4 0
x_1_11_0_5 0
x_1_11_1_0 0
x_1_11_1_1 0
x_1_11_1_2 0
x_1_11_1_3 0
x_1_11_1_4 0
x_1_11_1_5 0
x_1_12_0_0 0
x_1_12_0_1 0
x_1_12_0_2 0
x_1_12_0_3 0
x_1_12_0_4 0
x_1_12_0_5 0
x_1_12_1_0 0
x_1_12_1_1 0
x_1_12_1_2 0
x_1_12_1_3 0
x_1_12_1_4 0
x_1_12_1_5 0
x_1_13_0_0 0
x_1_13_0_1 0
x_1_13_0_2 0
x_1_13_0_3 0
x_1_13_0_4 0
x_1_13_0_5 0
x_1_13_1_0 0
x_1_13_1_1 0
x_1_13_1_2 0
x_1_13_1_3 0
x_1_13_1_4 0
x_1_13_1_5 0
x_1_14_0_0 0
x_1_14_0_1 0
x_1_14_0_2 0
x_1_14_0_3 0
x_1_14_0_4 0
x_1_14_0_5 0
x_1_14_1_0 0
x_1_14_1_1 0
x_1_14_1_2 0
x_1_14_1_3 0
x_1_14_1_4 0
x_1_14_1_5 0
x_1_15_0_0 0
x_1_15_0_1 0
x_1_15_0_2 0
x_1_15_0_3 0
x_1_15_0_4 1
x_1_15_0_5 0
x_1_15_1_0 0
x_1_15_1_1 0
x_1_15_1_2 0
x_1_15_1_3 0
x_1_15_1_4 0
x_1_15_1_5 0
x_2_3_0_0 0
x_2_3_0_1 0
x_2_3_0_2 6.8747635238793046e-07
x_2_3_0_3 0
x_2_3_0_4 0
x_2_3_0_5 0
x_2_3_1_0 0
x_2_3_1_1 0
x_2_3_1_2 0
x_2_3_1_3 0
x_2_3_1_4 0
x_2_3_1_5 0
x_2_4_0_0 0
x_2_4_0_1 0
x_2_4_0_2 0
x_2_4_0_3 0
x_2_4_0_4 0
x_2_4_0_5 0
x_2_4_1_0 0
x_2_4_1_1 0
x_2_4_1_2 0
x_2_4_1_3 0
x_2_4_1_4 0
x_2_4_1_5 0
x_2_5_0_0 0
x_2_5_0_1 0
x_2_5_0_2 0
x_2_5_0_3 0
x_2_5_0_4 0
x_2_5_0_5 0
x_2_5_1_0 0
x_2_5_1_1 0
x_2_5_1_2 0
x_2_5_1_3 0
x_2_5_1_4 0
x_2_5_1_5 0
x_2_6_0_0 0
x_2_6_0_1 9.9999931262581010e-01
x_2_6_0_2 6.8580968572126385e-07
x_2_6_0_3 0
x_2_6_0_4 0
x_2_6_0_5 0
x_2_6_1_0 0
x_2_6_1_1 0
x_2_6_1_2 0
x_2_6_1_3 1
x_2_6_1_4 0
x_2_6_1_5 0
x_2_7_0_0 0
x_2_7_0_1 0
x_2_7_0_2 0
x_2_7_0_3 0
x_2_7_0_4 0
x_2_7_0_5 0
x_2_7_1_0 0
x_2_7_1_1 0
x_2_7_1_2 0
x_2_7_1_3 0
x_2_7_1_4 0
x_2_7_1_5 0
x_2_8_0_0 0
x_2_8_0_1 0
x_2_8_0_2 0
x_2_8_0_3 0
x_2_8_0_4 0
x_2_8_0_5 0
x_2_8_1_0 0
x_2_8_1_1 0
x_2_8_1_2 0
x_2_8_1_3 0
x_2_8_1_4 0
x_2_8_1_5 0
x_2_9_0_0 0
x_2_9_0_1 0
x_2_9_0_2 0
x_2_9_0_3 0
x_2_9_0_4 0
x_2_9_0_5 0
x_2_9_1_0 0
x_2_9_1_1 0
x_2_9_1_2 0
x_2_9_1_3 0
x_2_9_1_4 0
x_2_9_1_5 0
x_2_10_0_0 0
x_2_10_0_1 0
x_2_10_0_2 0
x_2_10_0_3 0
x_2_10_0_4 0
x_2_10_0_5 0
x_2_10_1_0 0
x_2_10_1_1 0
x_2_10_1_2 0
x_2_10_1_3 0
x_2_10_1_4 0
x_2_10_1_5 0
x_2_11_0_0 0
x_2_11_0_1 0
x_2_11_0_2 0
x_2_11_0_3 0
x_2_11_0_4 0
x_2_11_0_5 0
x_2_11_1_0 0
x_2_11_1_1 0
x_2_11_1_2 0
x_2_11_1_3 0
x_2_11_1_4 0
x_2_11_1_5 0
x_2_12_0_0 0
x_2_12_0_1 0
x_2_12_0_2 0
x_2_12_0_3 0
x_2_12_0_4 0
x_2_12_0_5 0
x_2_12_1_0 0
x_2_12_1_1 0
x_2_12_1_2 0
x_2_12_1_3 0
x_2_12_1_4 0
x_2_12_1_5 0
x_2_13_0_0 0
x_2_13_0_1 0
x_2_13_0_2 0
x_2_13_0_3 0
x_2_13_0_4 0
x_2_13_0_5 0
x_2_13_1_0 0
x_2_13_1_1 0
x_2_13_1_2 0
x_2_13_1_3 0
x_2_13_1_4 0
x_2_13_1_5 0
x_2_14_0_0 0
x_2_14_0_1 0
x_2_14_0_2 0
x_2_14_0_3 0
x_2_14_0_4 0
x_2_14_0_5 0
x_2_14_1_0 0
x_2_14_1_1 0
x_2_14_1_2 0
x_2_14_1_3 0
x_2_14_1_4 0
x_2_14_1_5 0
x_2_15_0_0 0
x_2_15_0_1 0.999999312833658
x_2_15_0_2 0
x_2_15_0_3 0
x_2_15_0_4 0
x_2_15_0_5 0
x_2_15_1_0 0
x_2_15_1_1 0
x_2_15_1_2 0
x_2_15_1_3 1
x_2_15_1_4 0
x_2_15_1_5 0
x_3_4_0_0 0
x_3_4_0_1 0
x_3_4_0_2 0
x_3_4_0_3 0
x_3_4_0_4 1
x_3_4_0_5 0
x_3_4_1_0 0
x_3_4_1_1 0
x_3_4_1_2 0
x_3_4_1_3 0
x_3_4_1_4 0
x_3_4_1_5 0
x_3_5_0_0 0
x_3_5_0_1 0
x_3_5_0_2 0
x_3_5_0_3 0
x_3_5_0_4 0
x_3_5_0_5 0
x_3_5_1_0 0
x_3_5_1_1 0
x_3_5_1_2 0
x_3_5_1_3 0
x_3_5_1_4 0
x_3_5_1_5 0
x_3_6_0_0 0
x_3_6_0_1 0
x_3_6_0_2 0
x_3_6_0_3 0
x_3_6_0_4 0
x_3_6_0_5 0
x_3_6_1_0 0
x_3_6_1_1 0
x_3_6_1_2 0
x_3_6_1_3 0
x_3_6_1_4 0
x_3_6_1_5 0
x_3_7_0_0 0
x_3_7_0_1 0
x_3_7_0_2 0
x_3_7_0_3 0
x_3_7_0_4 0
x_3_7_0_5 0
x_3_7_1_0 0
x_3_7_1_1 0
x_3_7_1_2 0
x_3_7_1_3 0
x_3_7_1_4 0
x_3_7_1_5 0
x_3_8_0_0 0
x_3_8_0_1 0
x_3_8_0_2 0
x_3_8_0_3 0
x_3_8_0_4 0
x_3_8_0_5 0
x_3_8_1_0 0
x_3_8_1_1 1
x_3_8_1_2 0
x_3_8_1_3 0
x_3_8_1_4 0
x_3_8_1_5 0
x_3_9_0_0 0
x_3_9_0_1 0
x_3_9_0_2 0
x_3_9_0_3 0
x_3_9_0_4 0
x_3_9_0_5 0
x_3_9_1_0 0
x_3_9_1_1 0
x_3_9_1_2 0
x_3_9_1_3 0
x_3_9_1_4 0
x_3_9_1_5 0
x_3_10_0_0 0
x_3_10_0_1 0
x_3_10_0_2 7.7758247624460113e-07
x_3_10_0_3 0
x_3_10_0_4 0
x_3_10_0_5 0
x_3_10_1_0 0
x_3_10_1_1 0
x_3_10_1_2 0
x_3_10_1_3 0
x_3_10_1_4 0
x_3_10_1_5 0
x_3_11_0_0 0
x_3_11_0_1 0
x_3_11_0_2 0
x_3_11_0_3 0
x_3_11_0_4 0
x_3_11_0_5 0
x_3_11_1_0 0
x_3_11_1_1 0
x_3_11_1_2 0
x_3_11_1_3 0
x_3_11_1_4 0
x_3_11_1_5 0
x_3_12_0_0 0
x_3_12_0_1 0
x_3_12_0_2 0
x_3_12_0_3 0
x_3_12_0_4 0
x_3_12_0_5 0
x_3_12_1_0 0
x_3_12_1_1 0
x_3_12_1_2 0
x_3_12_1_3 0
x_3_12_1_4 0
x_3_12_1_5 0
x_3_13_0_0 0
x_3_13_0_1 0
x_3_13_0_2 0
x_3_13_0_3 0
x_3_13_0_4 0
x_3_13_0_5 0
x_3_13_1_0 0
x_3_13_1_1 0
x_3_13_1_2 0
x_3_13_1_3 0
x_3_13_1_4 0
x_3_13_1_5 0
x_3_14_0_0 0
x_3_14_0_1 0
x_3_14_0_2 0
x_3_14_0_3 0
x_3_14_0_4 0
x_3_14_0_5 0
x_3_14_1_0 0
x_3_14_1_1 0
x_3_14_1_2 0
x_3_14_1_3 0
x_3_14_1_4 0
x_3_14_1_5 0
x_3_15_0_0 0
x_3_15_0_1 0
x_3_15_0_2 0
x_3_15_0_3 0
x_3_15_0_4 0
x_3_15_0_5 0
x_3_15_1_0 0
x_3_15_1_1 0
x_3_15_1_2 0
x_3_15_1_3 0
x_3_15_1_4 0
x_3_15_1_5 0
x_4_5_0_0 0
x_4_5_0_1 0
x_4_5_0_2 0
x_4_5_0_3 0
x_4_5_0_4 0
x_4_5_0_5 0
x_4_5_1_0 0
x_4_5_1_1 0
x_4_5_1_2 0
x_4_5_1_3 0
x_4_5_1_4 0
x_4_5_1_5 0
x_4_6_0_0 0
x_4_6_0_1 0
x_4_6_0_2 0
x_4_6_0_3 0
x_4_6_0_4 0
x_4_6_0_5 0
x_4_6_1_0 0
x_4_6_1_1 0
x_4_6_1_2 0
x_4_6_1_3 0
x_4_6_1_4 0
x_4_6_1_5 0
x_4_7_0_0 0
x_4_7_0_1 0
x_4_7_0_2 0
x_4_7_0_3 0
x_4_7_0_4 0
x_4_7_0_5 0
x_4_7_1_0 0
x_4_7_1_1 0
x_4_7_1_2 0
x_4_7_1_3 0
x_4_7_1_4 0
x_4_7_1_5 0
x_4_8_0_0 0
x_4_8_0_1 0
x_4_8_0_2 0
x_4_8_0_3 0
x_4_8_0_4 1
x_4_8_0_5 0
x_4_8_1_0 0
x_4_8_1_1 0
x_4_8_1_2 0
x_4_8_1_3 0
x_4_8_1_4 0
x_4_8_1_5 0
x_4_9_0_0 0
x_4_9_0_1 0
x_4_9_0_2 0
x_4_9_0_3 1
x_4_9_0_4 0
x_4_9_0_5 0
x_4_9_1_0 0
x_4_9_1_1 1
x_4_9_1_2 0
x_4_9_1_3 0
x_4_9_1_4 0
x_4_9_1_5 0
x_4_10_0_0 0
x_4_10_0_1 0
x_4_10_0_2 0
x_4_10_0_3 0
x_4_10_0_4 0
x_4_10_0_5 0
x_4_10_1_0 0
x_4_10_1_1 0
x_4_10_1_2 0
x_4_10_1_3 0
x_4_10_1_4 0
x_4_10_1_5 0
x_4_11_0_0 0
x_4_11_0_1 0
x_4_11_0_2 0
x_4_11_0_3 0
x_4_11_0_4 0
x_4_11_0_5 0
x_4_11_1_0 0
x_4_11_1_1 0
x_4_11_1_2 0
x_4_11_1_3 0
x_4_11_1_4 0
x_4_11_1_5 0
x_4_12_0_0 0
x_4_12_0_1 0
x_4_12_0_2 0
x_4_12_0_3 0
x_4_12_0_4 0
x_4_12_0_5 0
x_4_12_1_0 0
x_4_12_1_1 0
x_4_12_1_2 0
x_4_12_1_3 0
x_4_12_1_4 0
x_4_12_1_5 0
x_4_13_0_0 0
x_4_13_0_1 0
x_4_13_0_2 0
x_4_13_0_3 0
x_4_13_0_4 0
x_4_13_0_5 0
x_4_13_1_0 0
x_4_13_1_1 0
x_4_13_1_2 0
x_4_13_1_3 0
x_4_13_1_4 0
x_4_13_1_5 0
x_4_14_0_0 0
x_4_14_0_1 0
x_4_14_0_2 0
x_4_14_0_3 0
x_4_14_0_4 0
x_4_14_0_5 0
x_4_14_1_0 0
x_4_14_1_1 0
x_4_14_1_2 0
x_4_14_1_3 0
x_4_14_1_4 0
x_4_14_1_5 0
x_4_15_0_0 0
x_4_15_0_1 0
x_4_15_0_2 0
x_4_15_0_3 0
x_4_15_0_4 0
x_4_15_0_5 0
x_4_15_1_0 0
x_4_15_1_1 0
x_4_15_1_2 0
x_4_15_1_3 0
x_4_15_1_4 0
x_4_15_1_5 0
x_5_6_0_0 0
x_5_6_0_1 0
x_5_6_0_2 0
x_5_6_0_3 0
x_5_6_0_4 0
x_5_6_0_5 0
x_5_6_1_0 0
x_5_6_1_1 0
x_5_6_1_2 0
x_5_6_1_3 0
x_5_6_1_4 0
x_5_6_1_5 0
x_5_7_0_0 0
x_5_7_0_1 0
x_5_7_0_2 0
x_5_7_0_3 0
x_5_7_0_4 0
x_5_7_0_5 0
x_5_7_1_0 0
x_5_7_1_1 0
x_5_7_1_2 0
x_5_7_1_3 0.999998535014872
x_5_7_1_4 0
x_5_7_1_5 0
x_5_8_0_0 0
x_5_8_0_1 0
x_5_8_0_2 0
x_5_8_0_3 0
x_5_8_0_4 0
x_5_8_0_5 0
x_5_8_1_0 0
x_5_8_1_1 0
x_5_8_1_2 0
x_5_8_1_3 0
x_5_8_1_4 0
x_5_8_1_5 0
x_5_9_0_0 0
x_5_9_0_1 0
x_5_9_0_2 0
x_5_9_0_3 0
x_5_9_0_4 0
x_5_9_0_5 0
x_5_9_1_0 0
x_5_9_1_1 0
x_5_9_1_2 0
x_5_9_1_3 0
x_5_9_1_4 0
x_5_9_1_5 0
x_5_10_0_0 0
x_5_10_0_1 0
x_5_10_0_2 0
x_5_10_0_3 0
x_5_10_0_4 0
x_5_10_0_5 0
x_5_10_1_0 0
x_5_10_1_1 0
x_5_10_1_2 0
x_5_10_1_3 0
x_5_10_1_4 0
x_5_10_1_5 0
x_5_11_0_0 0
x_5_11_0_1 0
x_5_11_0_2 0
x_5_11_0_3 0
x_5_11_0_4 0
x_5_11_0_5 0
x_5_11_1_0 0
x_5_11_1_1 0
x_5_11_1_2 0
x_5_11_1_3 0
x_5_11_1_4 0
x_5_11_1_5 0
x_5_12_0_0 0
x_5_12_0_1 0
x_5_12_0_2 0
x_5_12_0_3 0
x_5_12_0_4 0
x_5_12_0_5 0
x_5_12_1_0 0
x_5_12_1_1 0
x_5_12_1_2 0
x_5_12_1_3 0
x_5_12_1_4 0
x_5_12_1_5 0
x_5_13_0_0 0
x_5_13_0_1 0
x_5_13_0_2 0
x_5_13_0_3 0
x_5_13_0_4 0
x_5_13_0_5 0
x_5_13_1_0 0
x_5_13_1_1 0
x_5_13_1_2 0
x_5_13_1_3 0
x_5_13_1_4 0
x_5_13_1_5 0
x_5_14_0_0 0
x_5_14_0_1 0
x_5_14_0_2 0
x_5_14_0_3 0
x_5_14_0_4 0
x_5_14_0_5 0
x_5_14_1_0 0
x_5_14_1_1 0
x_5_14_1_2 0
x_5_14_1_3 0
x_5_14_1_4 0
x_5_14_1_5 0
x_5_15_0_0 0
x_5_15_0_1 0
x_5_15_0_2 0
x_5_15_0_3 0
x_5_15_0_4 0
x_5_15_0_5 0
x_5_15_1_0 0
x_5_15_1_1 0
x_5_15_1_2 0
x_5_15_1_3 0
x_5_15_1_4 0
x_5_15_1_5 0
x_6_7_0_0 0
x_6_7_0_1 0
x_6_7_0_2 0
x_6_7_0_3 0
x_6_7_0_4 0
x_6_7_0_5 0
x_6_7_1_0 0
x_6_7_1_1 0
x_6_7_1_2 0
x_6_7_1_3 0
x_6_7_1_4 0
x_6_7_1_5 0
x_6_8_0_0 0
x_6_8_0_1 0
x_6_8_0_2 0
x_6_8_0_3 0
x_6_8_0_4 0
x_6_8_0_5 0
x_6_8_1_0 0
x_6_8_1_1 0
x_6_8_1_2 0
x_6_8_1_3 0
x_6_8_1_4 0
x_6_8_1_5 0
x_6_9_0_0 0
x_6_9_0_1 0
x_6_9_0_2 0
x_6_9_0_3 0
x_6_9_0_4 0
x_6_9_0_5 0
x_6_9_1_0 0
x_6_9_1_1 0
x_6_9_1_2 0
x_6_9_1_3 0
x_6_9_1_4 0
x_6_9_1_5 0
x_6_10_0_0 0
x_6_10_0_1 8.8185779577858541e-08
x_6_10_0_2 5.0726410467458912e-07
x_6_10_0_3 0
x_6_10_0_4 0
x_6_10_0_5 0
x_6_10_1_0 0
x_6_10_1_1 0
x_6_10_1_2 0
x_6_10_1_3 1
x_6_10_1_4 0
x_6_10_1_5 0
x_6_11_0_0 0
x_6_11_0_1 0
x_6_11_0_2 0
x_6_11_0_3 0
x_6_11_0_4 0
x_6_11_0_5 0
x_6_11_1_0 0
x_6_11_1_1 0
x_6_11_1_2 0
x_6_11_1_3 0
x_6_11_1_4 0
x_6_11_1_5 0
x_6_12_0_0 0
x_6_12_0_1 0
x_6_12_0_2 0
x_6_12_0_3 0
x_6_12_0_4 0
x_6_12_0_5 0
x_6_12_1_0 0
x_6_12_1_1 0
x_6_12_1_2 0
x_6_12_1_3 0
x_6_12_1_4 0
x_6_12_1_5 0
x_6_13_0_0 0
x_6_13_0_1 9.9999931257096508e-01
x_6_13_0_2 0
x_6_13_0_3 0
x_6_13_0_4 0
x_6_13_0_5 0
x_6_13_1_0 0
x_6_13_1_1 0
x_6_13_1_2 0
x_6_13_1_3 0
x_6_13_1_4 0
x_6_13_1_5 0
x_6_14_0_0 0
x_6_14_0_1 0
x_6_14_0_2 0
x_6_14_0_3 0
x_6_14_0_4 0
x_6_14_0_5 0
x_6_14_1_0 0
x_6_14_1_1 0
x_6_14_1_2 0
x_6_14_1_3 0
x_6_14_1_4 0
x_6_14_1_5 0
x_6_15_0_0 0
x_6_15_0_1 9.0058806508587563e-08
x_6_15_0_2 0
x_6_15_0_3 0
x_6_15_0_4 0
x_6_15_0_5 0
x_6_15_1_0 0
x_6_15_1_1 0
x_6_15_1_2 0
x_6_15_1_3 0
x_6_15_1_4 0
x_6_15_1_5 0
x_7_8_0_0 0
x_7_8_0_1 0
x_7_8_0_2 0
x_7_8_0_3 0
x_7_8_0_4 0
x_7_8_0_5 0
x_7_8_1_0 0
x_7_8_1_1 0
x_7_8_1_2 0
x_7_8_1_3 0
x_7_8_1_4 0
x_7_8_1_5 0
x_7_9_0_0 0
x_7_9_0_1 0
x_7_9_0_2 0
x_7_9_0_3 0
x_7_9_0_4 0
x_7_9_0_5 0
x_7_9_1_0 0
x_7_9_1_1 0
x_7_9_1_2 0
x_7_9_1_3 0
x_7_9_1_4 0
x_7_9_1_5 0
x_7_10_0_0 0
x_7_10_0_1 0
x_7_10_0_2 9.9999862513457971e-01
x_7_10_0_3 0
x_7_10_0_4 0
x_7_10_0_5 0
x_7_10_1_0 0
x_7_10_1_1 0
x_7_10_1_2 0
x_7_10_1_3 9.9999853502847524e-01
x_7_10_1_4 0
x_7_10_1_5 0
x_7_11_0_0 0
x_7_11_0_1 0
x_7_11_0_2 0
x_7_11_0_3 0
x_7_11_0_4 0
x_7_11_0_5 0
x_7_11_1_0 0
x_7_11_1_1 0
x_7_11_1_2 0
x_7_11_1_3 1.4634692716393117e-06
x_7_11_1_4 0
x_7_11_1_5 0
x_7_12_0_0 0
x_7_12_0_1 0
x_7_12_0_2 0
x_7_12_0_3 0
x_7_12_0_4 0
x_7_12_0_5 0
x_7_12_1_0 0
x_7_12_1_1 0
x_7_12_1_2 0
x_7_12_1_3 0
x_7_12_1_4 0
x_7_12_1_5 0
x_7_13_0_0 0
x_7_13_0_1 0
x_7_13_0_2 0
x_7_13_0_3 0
x_7_13_0_4 0
x_7_13_0_5 0
x_7_13_1_0 0
x_7_13_1_1 0
x_7_13_1_2 0
x_7_13_1_3 0
x_7_13_1_4 0
x_7_13_1_5 0
x_7_14_0_0 0
x_7_14_0_1 0
x_7_14_0_2 0
x_7_14_0_3 0
x_7_14_0_4 0
x_7_14_0_5 0
x_7_14_1_0 0
x_7_14_1_1 0
x_7_14_1_2 0
x_7_14_1_3 1.4650588096446513e-06
x_7_14_1_4 0
x_7_14_1_5 0
x_7_15_0_0 0
x_7_15_0_1 0
x_7_15_0_2 0
x_7_15_0_3 0
x_7_15_0_4 0
x_7_15_0_5 0
x_7_15_1_0 0
x_7_15_1_1 0
x_7_15_1_2 0
x_7_15_1_3 0
x_7_15_1_4 0
x_7_15_1_5 0
x_8_9_0_0 0
x_8_9_0_1 0
x_8_9_0_2 0
x_8_9_0_3 1
x_8_9_0_4 0
x_8_9_0_5 0
x_8_9_1_0 0
x_8_9_1_1 0
x_8_9_1_2 0
x_8_9_1_3 0
x_8_9_1_4 0
x_8_9_1_5 0
x_8_10_0_0 0
x_8_10_0_1 0
x_8_10_0_2 0
x_8_10_0_3 0
x_8_10_0_4 0
x_8_10_0_5 0
x_8_10_1_0 0
x_8_10_1_1 0
x_8_10_1_2 0
x_8_10_1_3 0
x_8_10_1_4 0
x_8_10_1_5 0
x_8_11_0_0 0
x_8_11_0_1 0
x_8_11_0_2 0
x_8_11_0_3 0
x_8_11_0_4 0
x_8_11_0_5 0
x_8_11_1_0 0
x_8_11_1_1 0
x_8_11_1_2 0
x_8_11_1_3 0
x_8_11_1_4 0
x_8_11_1_5 0
x_8_12_0_0 0
x_8_12_0_1 0
x_8_12_0_2 0
x_8_12_0_3 0
x_8_12_0_4 0
x_8_12_0_5 0
x_8_12_1_0 0
x_8_12_1_1 0
x_8_12_1_2 0
x_8_12_1_3 0
x_8_12_1_4 0
x_8_12_1_5 0
x_8_13_0_0 0
x_8_13_0_1 0
x_8_13_0_2 0
x_8_13_0_3 0
x_8_13_0_4 0
x_8_13_0_5 0
x_8_13_1_0 0
x_8_13_1_1 0
x_8_13_1_2 0
x_8_13_1_3 0
x_8_13_1_4 0
x_8_13_1_5 0
x_8_14_0_0 0
x_8_14_0_1 0
x_8_14_0_2 0
x_8_14_0_3 0
x_8_14_0_4 0
x_8_14_0_5 0
x_8_14_1_0 0
x_8_14_1_1 0
x_8_14_1_2 0
x_8_14_1_3 0
x_8_14_1_4 0
x_8_14_1_5 0
x_8_15_0_0 0
x_8_15_0_1 0
x_8_15_0_2 0
x_8_15_0_3 0
x_8_15_0_4 0
x_8_15_0_5 0
x_8_15_1_0 0
x_8_15_1_1 0
x_8_15_1_2 0
x_8_15_1_3 0
x_8_15_1_4 0
x_8_15_1_5 0
x_9_10_0_0 0
x_9_10_0_1 0
x_9_10_0_2 0
x_9_10_0_3 0
x_9_10_0_4 0
x_9_10_0_5 0
x_9_10_1_0 0
x_9_10_1_1 0
x_9_10_1_2 0
x_9_10_1_3 0
x_9_10_1_4 0
x_9_10_1_5 0
x_9_11_0_0 0
x_9_11_0_1 0
x_9_11_0_2 0
x_9_11_0_3 0
x_9_11_0_4 0
x_9_11_0_5 0
x_9_11_1_0 0
x_9_11_1_1 0
x_9_11_1_2 0
x_9_11_1_3 0
x_9_11_1_4 0
x_9_11_1_5 0
x_9_12_0_0 0
x_9_12_0_1 0
x_9_12_0_2 0
x_9_12_0_3 0
x_9_12_0_4 0
x_9_12_0_5 0
x_9_12_1_0 0
x_9_12_1_1 0
x_9_12_1_2 0
x_9_12_1_3 0
x_9_12_1_4 0
x_9_12_1_5 0
x_9_13_0_0 0
x_9_13_0_1 0
x_9_13_0_2 0
x_9_13_0_3 0
x_9_13_0_4 0
x_9_13_0_5 0
x_9_13_1_0 0
x_9_13_1_1 0
x_9_13_1_2 0
x_9_13_1_3 0
x_9_13_1_4 0
x_9_13_1_5 0
x_9_14_0_0 0
x_9_14_0_1 0
x_9_14_0_2 0
x_9_14_0_3 0
x_9_14_0_4 0
x_9_14_0_5 0
x_9_14_1_0 0
x_9_14_1_1 0
x_9_14_1_2 0
x_9_14_1_3 0
x_9_14_1_4 0
x_9_14_1_5 0
x_9_15_0_0 0
x_9_15_0_1 0
x_9_15_0_2 0
x_9_15_0_3 0
x_9_15_0_4 0
x_9_15_0_5 0
x_9_15_1_0 0
x_9_15_1_1 0
x_9_15_1_2 0
x_9_15_1_3 0
x_9_15_1_4 0
x_9_15_1_5 0
x_10_11_0_0 0
x_10_11_0_1 0
x_10_11_0_2 0
x_10_11_0_3 0
x_10_11_0_4 0
x_10_11_0_5 0
x_10_11_1_0 0
x_10_11_1_1 0
x_10_11_1_2 0
x_10_11_1_3 0
x_10_11_1_4 0
x_10_11_1_5 0
x_10_12_0_0 0
x_10_12_0_1 0
x_10_12_0_2 0
x_10_12_0_3 0
x_10_12_0_4 0
x_10_12_0_5 0
x_10_12_1_0 0
x_10_12_1_1 0
x_10_12_1_2 0
x_10_12_1_3 8.8352153290765773e-08
x_10_12_1_4 0
x_10_12_1_5 0
x_10_13_0_0 0
x_10_13_0_1 6.8731733113921277e-07
x_10_13_0_2 0.999998715153419
x_10_13_0_3 0
x_10_13_0_4 0
x_10_13_0_5 0
x_10_13_1_0 0
x_10_13_1_1 0
x_10_13_1_2 0
x_10_13_1_3 1.3749527047758611e-06
x_10_13_1_4 0
x_10_13_1_5 0
x_10_14_0_0 0
x_10_14_0_1 5.9737022843552877e-07
x_10_14_0_2 0
x_10_14_0_3 0
x_10_14_0_4 0
x_10_14_0_5 0
x_10_14_1_0 0
x_10_14_1_1 0
x_10_14_1_2 0
x_10_14_1_3 0
x_10_14_1_4 0
x_10_14_1_5 0
x_10_15_0_0 0
x_10_15_0_1 0
x_10_15_0_2 0
x_10_15_0_3 0
x_10_15_0_4 0
x_10_15_0_5 0
x_10_15_1_0 0
x_10_15_1_1 0
x_10_15_1_2 0
x_10_15_1_3 0
x_10_15_1_4 0
x_10_15_1_5 0
x_11_12_0_0 0
x_11_12_0_1 1
x_11_12_0_2 9.9999853494117141e-01
x_11_12_0_3 0
x_11_12_0_4 1
x_11_12_0_5 0
x_11_12_1_0 0
x_11_12_1_1 0
x_11_12_1_2 0
x_11_12_1_3 1.4647524975559862e-06
x_11_12_1_4 0
x_11_12_1_5 0
x_11_13_0_0 0
x_11_13_0_1 0
x_11_13_0_2 0
x_11_13_0_3 0
x_11_13_0_4 0
x_11_13_0_5 0
x_11_13_1_0 0
x_11_13_1_1 0
x_11_13_1_2 0
x_11_13_1_3 0
x_11_13_1_4 0
x_11_13_1_5 0
x_11_14_0_0 0
x_11_14_0_1 0
x_11_14_0_2 0
x_11_14_0_3 0
x_11_14_0_4 0
x_11_14_0_5 0
x_11_14_1_0 0
x_11_14_1_1 0
x_11_14_1_2 0
x_11_14_1_3 0
x_11_14_1_4 0
x_11_14_1_5 0
x_11_15_0_0 0
x_11_15_0_1 0
x_11_15_0_2 0
x_11_15_0_3 0
x_11_15_0_4 0
x_11_15_0_5 0
x_11_15_1_0 0
x_11_15_1_1 0
x_11_15_1_2 0
x_11_15_1_3 0
x_11_15_1_4 0
x_11_15_1_5 0
x_12_13_0_0 0
x_12_13_0_1 1
x_12_13_0_2 9.9999853494117141e-01
x_12_13_0_3 0
x_12_13_0_4 1
x_12_13_0_5 0
x_12_13_1_0 0
x_12_13_1_1 0
x_12_13_1_2 0
x_12_13_1_3 1.3749527047758611e-06
x_12_13_1_4 0
x_12_13_1_5 0
x_12_14_0_0 0
x_12_14_0_1 0
x_12_14_0_2 0
x_12_14_0_3 0
x_12_14_0_4 0
x_12_14_0_5 0
x_12_14_1_0 0
x_12_14_1_1 0
x_12_14_1_2 0
x_12_14_1_3 0
x_12_14_1_4 0
x_12_14_1_5 0
x_12_15_0_0 0
x_12_15_0_1 0
x_12_15_0_2 0
x_12_15_0_3 0
x_12_15_0_4 0
x_12_15_0_5 0
x_12_15_1_0 0
x_12_15_1_1 0
x_12_15_1_2 0
x_12_15_1_3 0
x_12_15_1_4 0
x_12_15_1_5 0
x_13_14_0_0 0
x_13_14_0_1 0
x_13_14_0_2 0
x_13_14_0_3 0
x_13_14_0_4 1
x_13_14_0_5 0
x_13_14_1_0 0
x_13_14_1_1 0
x_13_14_1_2 0
x_13_14_1_3 0
x_13_14_1_4 0
x_13_14_1_5 0
x_13_15_0_0 0
x_13_15_0_1 0
x_13_15_0_2 0
x_13_15_0_3 0
x_13_15_0_4 0
x_13_15_0_5 0
x_13_15_1_0 0
x_13_15_1_1 0
x_13_15_1_2 0
x_13_15_1_3 0
x_13_15_1_4 0
x_13_15_1_5 0
x_14_15_0_0 0
x_14_15_0_1 1
x_14_15_0_2 0
x_14_15_0_3 0
x_14_15_0_4 1
x_14_15_0_5 0
x_14_15_1_0 0
x_14_15_1_1 0
x_14_15_1_2 0
x_14_15_1_3 1
x_14_15_1_4 0
x_14_15_1_5 0
